#######################################
### Exact MIP solver for the HHCRSP ###
#######################################
-- Instance file: new-instances/HHCRSP_400_80_84_1.6_R_C.txt
-- Max threads: 4
-- Time limit: 999999 seconds
-- Use initial solution: No
Trivial flow violations prevented generating 2812818 variables.
Version identifier: 20.1.0.0 | 2020-11-10 | 9bedb6d68
CPXPARAM_Threads                                 4
CPXPARAM_Emphasis_Memory                         1
CPXPARAM_TimeLimit                               999999
Tried aggregator 1 time.
Presolve has eliminated 85956 rows and 19857 columns...
LP Presolve eliminated 85956 rows and 19857 columns.
Reduced LP has 3160264 rows, 2992741 columns, and 93008884 nonzeros.
Presolve time = 96.83 sec. (19711.49 ticks)
Compression time = 21.38 sec. (5.97 ticks)
Compression reduced 1333.67 MB A matrix to 401.02 MB
Symmetry aggregator did 5415018 additional substitutions.
Elapsed time = 121.01 sec. (20541.30 ticks, 1 iterations)

Iteration log . . .
Iteration:     1   Dual objective     =             0.000000
Iteration:  1793   Dual objective     =           306.500000

Dual crossover.
  Dual:  Fixing 2846 variables.
     2845 DMoves:  Infeasibility  5.07927034e-12  Objective  3.10000000e+02
        0 DMoves:  Infeasibility  2.45761744e-12  Objective  3.10000000e+02
  Dual:  Pushed 76, exchanged 2770.
  Primal:  Fixing 2177 variables.
     2176 PMoves:  Infeasibility  6.66133815e-16  Objective  3.10000000e+02
        0 PMoves:  Infeasibility  2.22044605e-15  Objective  3.10000000e+02
  Primal:  Pushed 1991, exchanged 186.

Solution status from MIP model:
-- Processing time: 164.252 sec.
-- Memory used: 2044.86 MB
-- Best bound: inf
-- Obj value: 310
-- Gap: inf%
-- Total distance: 930
-- Total tardiness: 0
-- Largest tardiness: 0
